dry_run: False
attempt: 1
with_proof: False
command: cadical -w results/paper_assets/full_bundle/atlas/case_11111/model.txt results/paper_assets/full_bundle/atlas/case_11111/sen24.cnf
return_code: 20
duration_sec: 0.013883
----- STDOUT -----
c --- [ banner ] -------------------------------------------------------------
c 
c CaDiCaL SAT Solver
c Copyright (c) 2016-2025
c A. Biere, M. Fleury, N. Froleyks, K. Fazekas, F. Pollitt, T. Faller
c JKU Linz, University of Freiburg, TU Wien
c 
c Version 3.0.0
c Apple clang version 17.0.0 (clang-1700.6.3.2) -Wall -Wextra -O3 -DNDEBUG -DNCLOSEFROM
c Tue Dec 23 21:53:37 UTC 2025 Darwin Sequoia-arm64.local 24.6.0 arm64
c 
c --- [ parsing input ] ------------------------------------------------------
c 
c reading DIMACS file from 'results/paper_assets/full_bundle/atlas/case_11111/sen24.cnf'
c opening file to read 'results/paper_assets/full_bundle/atlas/case_11111/sen24.cnf'
c found 'p cnf 6936 50114' header
c parsed 50114 clauses in 0.01 seconds process time
c 
c --- [ options ] ------------------------------------------------------------
c 
c all options are set to their default value
c 
c --- [ solving ] ------------------------------------------------------------
c 
c time measured in process time since initialization
c 
c  seconds  reduction conflicts       size tier2      variables
c         MB    restarts   redundant    glue  trail        remaining
c          level     rate       size/glu tier1  irredundant
c 
c *  0.01  0  0 0   0  0    0    0 0.0 0 0 2 6  0% 21602 3480 50%
c l  0.01  0  0 0   0  0    0    0 0.0 1 0 2 6 60% 21602 2748 40%
c 0  0.01  0  0 0   0  0    0    0 0.0 1 0 2 6 60% 21602 2748 40%
c 
c --- [ result ] -------------------------------------------------------------
c 
c writing result to 'results/paper_assets/full_bundle/atlas/case_11111/model.txt'
c 
c --- [ run-time profiling ] -------------------------------------------------
c 
c process time taken by individual solving procedures
c (percentage relative to process time for solving)
c 
c         0.01 1389.03% parse
c         0.00   96.40% search
c         0.00   96.24% lucky
c         0.00    0.00% simplify
c   =================================
c         0.00    6.58% solve
c 
c last line shows process time for solving
c (percentage relative to total process time)
c 
c --- [ statistics ] ---------------------------------------------------------
c 
c fixed:                      4188        60.38 %  of all variables
c learned_lits:                 11       100.00 %  learned literals
c minimized:                     0         0.00 %  learned literals
c shrunken:                      0         0.00 %  learned literals
c minishrunken:                  0         0.00 %  learned literals
c propagations:               3456         5.66 M  per second
c ticks:                      6912         2.00    propagation
c 
c seconds are measured in process time for solving
c 
c --- [ glue usage ] ---------------------------------------------------------
c 
c focused glue 2 used 0 clauses 0.000% accumulated 0.000% tier1
c focused glue 3 used 0 clauses 0.000% accumulated 0.000%
c focused glue 4 used 0 clauses 0.000% accumulated 0.000%
c focused glue 5 used 0 clauses 0.000% accumulated 0.000%
c focused glue 6 used 0 clauses 0.000% accumulated 0.000% tier2
c 
c stable glue 2 used 0 clauses 0.000% accumulated 0.000% tier1
c stable glue 3 used 0 clauses 0.000% accumulated 0.000%
c stable glue 4 used 0 clauses 0.000% accumulated 0.000%
c stable glue 5 used 0 clauses 0.000% accumulated 0.000%
c stable glue 6 used 0 clauses 0.000% accumulated 0.000% tier2
c 
c 
c --- [ resources ] ----------------------------------------------------------
c 
c total process time since initialization:         0.01    seconds
c total real time since initialization:            0.01    seconds
c maximum resident set size of process:         5296.00    MB
c 
c --- [ shutting down ] ------------------------------------------------------
c 
c exit 20
----- STDERR -----


attempt: 2
with_proof: True
command: cadical -w results/paper_assets/full_bundle/atlas/case_11111/model.txt --lrat --no-binary results/paper_assets/full_bundle/atlas/case_11111/sen24.cnf results/paper_assets/full_bundle/atlas/case_11111/proof.lrat
return_code: 20
duration_sec: 0.017104
----- STDOUT -----
c --- [ banner ] -------------------------------------------------------------
c 
c CaDiCaL SAT Solver
c Copyright (c) 2016-2025
c A. Biere, M. Fleury, N. Froleyks, K. Fazekas, F. Pollitt, T. Faller
c JKU Linz, University of Freiburg, TU Wien
c 
c Version 3.0.0
c Apple clang version 17.0.0 (clang-1700.6.3.2) -Wall -Wextra -O3 -DNDEBUG -DNCLOSEFROM
c Tue Dec 23 21:53:37 UTC 2025 Darwin Sequoia-arm64.local 24.6.0 arm64
c 
c --- [ proof tracing ] ------------------------------------------------------
c 
c opening file to write 'results/paper_assets/full_bundle/atlas/case_11111/proof.lrat'
c writing non-binary proof trace to 'results/paper_assets/full_bundle/atlas/case_11111/proof.lrat'
c 
c --- [ parsing input ] ------------------------------------------------------
c 
c reading DIMACS file from 'results/paper_assets/full_bundle/atlas/case_11111/sen24.cnf'
c opening file to read 'results/paper_assets/full_bundle/atlas/case_11111/sen24.cnf'
c found 'p cnf 6936 50114' header
c parsed 50114 clauses in 0.01 seconds process time
c 
c --- [ options ] ------------------------------------------------------------
c 
c   --binary=false                 (different from default 'true')
c   --lrat=true                    (different from default 'false')
c 
c --- [ solving ] ------------------------------------------------------------
c 
c time measured in process time since initialization
c 
c  seconds  reduction conflicts       size tier2      variables
c         MB    restarts   redundant    glue  trail        remaining
c          level     rate       size/glu tier1  irredundant
c 
c *  0.01  0  0 0   0  0    0    0 0.0 0 0 2 6  0% 21602 3480 50%
c l  0.01  0  0 0   0  0    0    0 0.0 1 0 2 6 60% 21602 2748 40%
c 0  0.01  0  0 0   0  0    0    0 0.0 1 0 2 6 60% 21602 2748 40%
c 
c --- [ closing proof ] ------------------------------------------------------
c 
c LRAT proof file 'results/paper_assets/full_bundle/atlas/case_11111/proof.lrat' closed
c LRAT 6589 added clauses 17.57%
c LRAT 30912 deleted clauses 82.43%
c LRAT 437016 bytes (0.42 MB)
c 
c --- [ result ] -------------------------------------------------------------
c 
c writing result to 'results/paper_assets/full_bundle/atlas/case_11111/model.txt'
c 
c --- [ run-time profiling ] -------------------------------------------------
c 
c process time taken by individual solving procedures
c (percentage relative to process time for solving)
c 
c         0.01 1160.29% parse
c         0.00   97.81% lucky
c         0.00   97.81% search
c         0.00    0.00% simplify
c   =================================
c         0.00    7.73% solve
c 
c last line shows process time for solving
c (percentage relative to total process time)
c 
c --- [ statistics ] ---------------------------------------------------------
c 
c fixed:                      4188        60.38 %  of all variables
c learned_lits:                 11       100.00 %  learned literals
c minimized:                     0         0.00 %  learned literals
c shrunken:                      0         0.00 %  learned literals
c minishrunken:                  0         0.00 %  learned literals
c propagations:               3456         3.61 M  per second
c ticks:                      6912         2.00    propagation
c 
c seconds are measured in process time for solving
c 
c --- [ glue usage ] ---------------------------------------------------------
c 
c focused glue 2 used 0 clauses 0.000% accumulated 0.000% tier1
c focused glue 3 used 0 clauses 0.000% accumulated 0.000%
c focused glue 4 used 0 clauses 0.000% accumulated 0.000%
c focused glue 5 used 0 clauses 0.000% accumulated 0.000%
c focused glue 6 used 0 clauses 0.000% accumulated 0.000% tier2
c 
c stable glue 2 used 0 clauses 0.000% accumulated 0.000% tier1
c stable glue 3 used 0 clauses 0.000% accumulated 0.000%
c stable glue 4 used 0 clauses 0.000% accumulated 0.000%
c stable glue 5 used 0 clauses 0.000% accumulated 0.000%
c stable glue 6 used 0 clauses 0.000% accumulated 0.000% tier2
c 
c 
c --- [ resources ] ----------------------------------------------------------
c 
c total process time since initialization:         0.01    seconds
c total real time since initialization:            0.01    seconds
c maximum resident set size of process:         5600.00    MB
c 
c --- [ shutting down ] ------------------------------------------------------
c 
c exit 20
----- STDERR -----
